NAME: random-7-28354
TYPE: TSP
COMMENT: size=7 seed=28354
DIMENSION: 16
EDGE_WEIGHT_TYPE: EUC_2D
NODE_COORD_SECTION
+0 678 483
-0 678 483
+1 638 712
-1 125 356
+2 522 192
-2 929 41
+3 201 808
-3 193 769
+4 995 20
-4 823 583
+5 723 442
-5 733 71
+6 416 102
-6 317 385
+7 499 583
-7 621 87
PRECEDENCE_SECTION
+0 -0
+1 -1
+2 -2
+3 -3
+4 -4
+5 -5
+6 -6
+7 -7
EOF
